20 57 58
35 62 63
36 63 69
3 52 64
28 43 67
31 37 69
8 31 62
26 27 68
7 17 63
23 16 57
24 8 52
43 5 64
48 25 55
6 21 47
27 30 48
51 30 40
46 32 39
12 31 32
47 25 32
4 20 26
18 17 33
14 12 42
25 7 38
13 5 25
41 10 17
19 13 13
40 5 6
42 21 10
44 30 15
37 32 22
17 27 23
15 36 16
45 39 10
33 46 10
39 59 15
10 51 21
49 48 28
5 40 30
38 45 35
11 42 41
32 38 46
1 37 52
22 42 57
2 49 49
16 52 41
50 56 37
9 52 33
30 58 27
34 61 33
21 62 42
29 58 48
20 57 58
